Route #1: 168 55 138 38 107 95 128 194 122 112 200 145 102 60 75 69 186 196 96 67 18 80
Route #2: 115 61 92 77 125 143 42 119 184 191 185 71 101 48 178 167 197 44 127 146 159 193 6 40 27 32 13 114 68 21 187 136 24 7 156 124 8 22 45 151 78 181 99
Route #3: 111 144 34 74 158 131 52 62 179 162 117 137 81 175 172 51 1 59 37 140 139 29 155 15 195 132 31 160 147 88 103 9 129 43 152 118 19 65 120 49 72 199 39 56 116 47 41 23
Route #4: 171 183 86 57 5 173 150 58 166 157 90 26 50 84 141 161 11 123 10 130 198 93 105 46 121 189 98 176 14 85 91 142 64 66 126 79 17 133 16 89 174 154 53 164
Route #5: 148 169 73 153 180 83 20 30 170 135 109 12 110 54 100 182 76 108 134 188 177 97 35 28 94 149 33 192 36 190 106 104 2 63 82 3 4 165 87 113 25 70 163
Cost 1665.580640